p cnf 585 1418
1 0
20 21 0
-20 -21 0
22 23 0
-22 -23 0
-19 20 0
-19 22 0
19 -20 -22 0
24 25 0
-24 -25 0
-18 19 0
-18 24 0
18 -19 -24 0
-27 19 0
27 -19 0
28 -25 0
-28 25 0
-26 27 0
-26 28 0
26 -27 -28 0
17 -18 0
17 -26 0
-17 18 26 0
31 21 0
-31 -21 0
32 -23 0
-32 23 0
-30 31 0
-30 32 0
30 -31 -32 0
33 25 0
-33 -25 0
-29 30 0
-29 33 0
29 -30 -33 0
16 -17 0
16 -29 0
-16 17 29 0
-35 30 0
35 -30 0
36 -25 0
-36 25 0
-34 35 0
-34 36 0
34 -35 -36 0
15 -16 0
15 -34 0
-15 16 34 0
39 -21 0
-39 21 0
40 23 0
-40 -23 0
-38 39 0
-38 40 0
38 -39 -40 0
41 25 0
-41 -25 0
-37 38 0
-37 41 0
37 -38 -41 0
14 -15 0
14 -37 0
-14 15 37 0
-43 38 0
43 -38 0
44 -25 0
-44 25 0
-42 43 0
-42 44 0
42 -43 -44 0
13 -14 0
13 -42 0
-13 14 42 0
52 53 0
-52 -53 0
54 55 0
-54 -55 0
-51 52 0
-51 54 0
51 -52 -54 0
56 57 0
-56 -57 0
-50 51 0
-50 56 0
50 -51 -56 0
-59 51 0
59 -51 0
60 -57 0
-60 57 0
-58 59 0
-58 60 0
58 -59 -60 0
49 -50 0
49 -58 0
-49 50 58 0
63 53 0
-63 -53 0
64 -55 0
-64 55 0
-62 63 0
-62 64 0
62 -63 -64 0
65 57 0
-65 -57 0
-61 62 0
-61 65 0
61 -62 -65 0
48 -49 0
48 -61 0
-48 49 61 0
-67 62 0
67 -62 0
68 -57 0
-68 57 0
-66 67 0
-66 68 0
66 -67 -68 0
47 -48 0
47 -66 0
-47 48 66 0
71 -53 0
-71 53 0
72 55 0
-72 -55 0
-70 71 0
-70 72 0
70 -71 -72 0
73 57 0
-73 -57 0
-69 70 0
-69 73 0
69 -70 -73 0
46 -47 0
46 -69 0
-46 47 69 0
-75 70 0
75 -70 0
76 -57 0
-76 57 0
-74 75 0
-74 76 0
74 -75 -76 0
45 -46 0
45 -74 0
-45 46 74 0
-12 13 0
-12 45 0
12 -13 -45 0
84 85 0
-84 -85 0
86 87 0
-86 -87 0
-83 84 0
-83 86 0
83 -84 -86 0
88 89 0
-88 -89 0
-82 83 0
-82 88 0
82 -83 -88 0
-91 83 0
91 -83 0
92 -89 0
-92 89 0
-90 91 0
-90 92 0
90 -91 -92 0
81 -82 0
81 -90 0
-81 82 90 0
95 85 0
-95 -85 0
96 -87 0
-96 87 0
-94 95 0
-94 96 0
94 -95 -96 0
97 89 0
-97 -89 0
-93 94 0
-93 97 0
93 -94 -97 0
80 -81 0
80 -93 0
-80 81 93 0
-99 94 0
99 -94 0
100 -89 0
-100 89 0
-98 99 0
-98 100 0
98 -99 -100 0
79 -80 0
79 -98 0
-79 80 98 0
103 -85 0
-103 85 0
104 87 0
-104 -87 0
-102 103 0
-102 104 0
102 -103 -104 0
105 89 0
-105 -89 0
-101 102 0
-101 105 0
101 -102 -105 0
78 -79 0
78 -101 0
-78 79 101 0
-107 102 0
107 -102 0
108 -89 0
-108 89 0
-106 107 0
-106 108 0
106 -107 -108 0
77 -78 0
77 -106 0
-77 78 106 0
-11 12 0
-11 77 0
11 -12 -77 0
116 117 0
-116 -117 0
118 119 0
-118 -119 0
-115 116 0
-115 118 0
115 -116 -118 0
120 121 0
-120 -121 0
-114 115 0
-114 120 0
114 -115 -120 0
-123 115 0
123 -115 0
124 -121 0
-124 121 0
-122 123 0
-122 124 0
122 -123 -124 0
113 -114 0
113 -122 0
-113 114 122 0
127 117 0
-127 -117 0
128 -119 0
-128 119 0
-126 127 0
-126 128 0
126 -127 -128 0
129 121 0
-129 -121 0
-125 126 0
-125 129 0
125 -126 -129 0
112 -113 0
112 -125 0
-112 113 125 0
-131 126 0
131 -126 0
132 -121 0
-132 121 0
-130 131 0
-130 132 0
130 -131 -132 0
111 -112 0
111 -130 0
-111 112 130 0
135 -117 0
-135 117 0
136 119 0
-136 -119 0
-134 135 0
-134 136 0
134 -135 -136 0
137 121 0
-137 -121 0
-133 134 0
-133 137 0
133 -134 -137 0
110 -111 0
110 -133 0
-110 111 133 0
-139 134 0
139 -134 0
140 -121 0
-140 121 0
-138 139 0
-138 140 0
138 -139 -140 0
109 -110 0
109 -138 0
-109 110 138 0
-10 11 0
-10 109 0
10 -11 -109 0
148 149 0
-148 -149 0
150 151 0
-150 -151 0
-147 148 0
-147 150 0
147 -148 -150 0
152 153 0
-152 -153 0
-146 147 0
-146 152 0
146 -147 -152 0
-155 147 0
155 -147 0
156 -153 0
-156 153 0
-154 155 0
-154 156 0
154 -155 -156 0
145 -146 0
145 -154 0
-145 146 154 0
159 149 0
-159 -149 0
160 -151 0
-160 151 0
-158 159 0
-158 160 0
158 -159 -160 0
161 153 0
-161 -153 0
-157 158 0
-157 161 0
157 -158 -161 0
144 -145 0
144 -157 0
-144 145 157 0
-163 158 0
163 -158 0
164 -153 0
-164 153 0
-162 163 0
-162 164 0
162 -163 -164 0
143 -144 0
143 -162 0
-143 144 162 0
167 -149 0
-167 149 0
168 151 0
-168 -151 0
-166 167 0
-166 168 0
166 -167 -168 0
169 153 0
-169 -153 0
-165 166 0
-165 169 0
165 -166 -169 0
142 -143 0
142 -165 0
-142 143 165 0
-171 166 0
171 -166 0
172 -153 0
-172 153 0
-170 171 0
-170 172 0
170 -171 -172 0
141 -142 0
141 -170 0
-141 142 170 0
-9 10 0
-9 141 0
9 -10 -141 0
180 181 0
-180 -181 0
182 183 0
-182 -183 0
-179 180 0
-179 182 0
179 -180 -182 0
184 185 0
-184 -185 0
-178 179 0
-178 184 0
178 -179 -184 0
-187 179 0
187 -179 0
188 -185 0
-188 185 0
-186 187 0
-186 188 0
186 -187 -188 0
177 -178 0
177 -186 0
-177 178 186 0
191 181 0
-191 -181 0
192 -183 0
-192 183 0
-190 191 0
-190 192 0
190 -191 -192 0
193 185 0
-193 -185 0
-189 190 0
-189 193 0
189 -190 -193 0
176 -177 0
176 -189 0
-176 177 189 0
-195 190 0
195 -190 0
196 -185 0
-196 185 0
-194 195 0
-194 196 0
194 -195 -196 0
175 -176 0
175 -194 0
-175 176 194 0
199 -181 0
-199 181 0
200 183 0
-200 -183 0
-198 199 0
-198 200 0
198 -199 -200 0
201 185 0
-201 -185 0
-197 198 0
-197 201 0
197 -198 -201 0
174 -175 0
174 -197 0
-174 175 197 0
-203 198 0
203 -198 0
204 -185 0
-204 185 0
-202 203 0
-202 204 0
202 -203 -204 0
173 -174 0
173 -202 0
-173 174 202 0
-8 9 0
-8 173 0
8 -9 -173 0
-213 202 0
213 -202 0
-214 37 0
214 -37 0
-212 213 0
-212 214 0
212 -213 -214 0
-216 197 0
216 -197 0
-217 42 0
217 -42 0
-215 216 0
-215 217 0
215 -216 -217 0
211 -212 0
211 -215 0
-211 212 215 0
-219 197 0
219 -197 0
222 -21 0
-222 21 0
223 -23 0
-223 23 0
-221 222 0
-221 223 0
221 -222 -223 0
224 25 0
-224 -25 0
-220 221 0
-220 224 0
220 -221 -224 0
-218 219 0
-218 220 0
218 -219 -220 0
210 -211 0
210 -218 0
-210 211 218 0
-226 194 0
226 -194 0
-227 37 0
227 -37 0
-225 226 0
-225 227 0
225 -226 -227 0
209 -210 0
209 -225 0
-209 210 225 0
-229 189 0
229 -189 0
-230 34 0
230 -34 0
-228 229 0
-228 230 0
228 -229 -230 0
208 -209 0
208 -228 0
-208 209 228 0
234 -181 0
-234 181 0
235 -183 0
-235 183 0
-233 234 0
-233 235 0
233 -234 -235 0
236 185 0
-236 -185 0
-232 233 0
-232 236 0
232 -233 -236 0
-237 26 0
237 -26 0
-231 232 0
-231 237 0
231 -232 -237 0
207 -208 0
207 -231 0
-207 208 231 0
-239 186 0
239 -186 0
-240 29 0
240 -29 0
-238 239 0
-238 240 0
238 -239 -240 0
206 -207 0
206 -238 0
-206 207 238 0
-242 178 0
242 -178 0
-243 26 0
243 -26 0
-241 242 0
-241 243 0
241 -242 -243 0
205 -206 0
205 -241 0
-205 206 241 0
-7 8 0
-7 205 0
7 -8 -205 0
-245 8 0
245 -8 0
-254 202 0
254 -202 0
-255 69 0
255 -69 0
-253 254 0
-253 255 0
253 -254 -255 0
-257 197 0
257 -197 0
-258 74 0
258 -74 0
-256 257 0
-256 258 0
256 -257 -258 0
252 -253 0
252 -256 0
-252 253 256 0
-260 197 0
260 -197 0
263 -53 0
-263 53 0
264 -55 0
-264 55 0
-262 263 0
-262 264 0
262 -263 -264 0
265 57 0
-265 -57 0
-261 262 0
-261 265 0
261 -262 -265 0
-259 260 0
-259 261 0
259 -260 -261 0
251 -252 0
251 -259 0
-251 252 259 0
-267 194 0
267 -194 0
-268 69 0
268 -69 0
-266 267 0
-266 268 0
266 -267 -268 0
250 -251 0
250 -266 0
-250 251 266 0
-270 189 0
270 -189 0
-271 66 0
271 -66 0
-269 270 0
-269 271 0
269 -270 -271 0
249 -250 0
249 -269 0
-249 250 269 0
-273 232 0
273 -232 0
-274 58 0
274 -58 0
-272 273 0
-272 274 0
272 -273 -274 0
248 -249 0
248 -272 0
-248 249 272 0
-276 186 0
276 -186 0
-277 61 0
277 -61 0
-275 276 0
-275 277 0
275 -276 -277 0
247 -248 0
247 -275 0
-247 248 275 0
-279 178 0
279 -178 0
-280 58 0
280 -58 0
-278 279 0
-278 280 0
278 -279 -280 0
246 -247 0
246 -278 0
-246 247 278 0
-244 245 0
-244 246 0
244 -245 -246 0
6 -7 0
6 -244 0
-6 7 244 0
-282 8 0
282 -8 0
-291 202 0
291 -202 0
-292 101 0
292 -101 0
-290 291 0
-290 292 0
290 -291 -292 0
-294 197 0
294 -197 0
-295 106 0
295 -106 0
-293 294 0
-293 295 0
293 -294 -295 0
289 -290 0
289 -293 0
-289 290 293 0
-297 197 0
297 -197 0
300 -85 0
-300 85 0
301 -87 0
-301 87 0
-299 300 0
-299 301 0
299 -300 -301 0
302 89 0
-302 -89 0
-298 299 0
-298 302 0
298 -299 -302 0
-296 297 0
-296 298 0
296 -297 -298 0
288 -289 0
288 -296 0
-288 289 296 0
-304 194 0
304 -194 0
-305 101 0
305 -101 0
-303 304 0
-303 305 0
303 -304 -305 0
287 -288 0
287 -303 0
-287 288 303 0
-307 189 0
307 -189 0
-308 98 0
308 -98 0
-306 307 0
-306 308 0
306 -307 -308 0
286 -287 0
286 -306 0
-286 287 306 0
-310 232 0
310 -232 0
-311 90 0
311 -90 0
-309 310 0
-309 311 0
309 -310 -311 0
285 -286 0
285 -309 0
-285 286 309 0
-313 186 0
313 -186 0
-314 93 0
314 -93 0
-312 313 0
-312 314 0
312 -313 -314 0
284 -285 0
284 -312 0
-284 285 312 0
-316 178 0
316 -178 0
-317 90 0
317 -90 0
-315 316 0
-315 317 0
315 -316 -317 0
283 -284 0
283 -315 0
-283 284 315 0
-281 282 0
-281 283 0
281 -282 -283 0
5 -6 0
5 -281 0
-5 6 281 0
-319 8 0
319 -8 0
-328 202 0
328 -202 0
-329 133 0
329 -133 0
-327 328 0
-327 329 0
327 -328 -329 0
-331 197 0
331 -197 0
-332 138 0
332 -138 0
-330 331 0
-330 332 0
330 -331 -332 0
326 -327 0
326 -330 0
-326 327 330 0
-334 197 0
334 -197 0
337 -117 0
-337 117 0
338 -119 0
-338 119 0
-336 337 0
-336 338 0
336 -337 -338 0
339 121 0
-339 -121 0
-335 336 0
-335 339 0
335 -336 -339 0
-333 334 0
-333 335 0
333 -334 -335 0
325 -326 0
325 -333 0
-325 326 333 0
-341 194 0
341 -194 0
-342 133 0
342 -133 0
-340 341 0
-340 342 0
340 -341 -342 0
324 -325 0
324 -340 0
-324 325 340 0
-344 189 0
344 -189 0
-345 130 0
345 -130 0
-343 344 0
-343 345 0
343 -344 -345 0
323 -324 0
323 -343 0
-323 324 343 0
-347 232 0
347 -232 0
-348 122 0
348 -122 0
-346 347 0
-346 348 0
346 -347 -348 0
322 -323 0
322 -346 0
-322 323 346 0
-350 186 0
350 -186 0
-351 125 0
351 -125 0
-349 350 0
-349 351 0
349 -350 -351 0
321 -322 0
321 -349 0
-321 322 349 0
-353 178 0
353 -178 0
-354 122 0
354 -122 0
-352 353 0
-352 354 0
352 -353 -354 0
320 -321 0
320 -352 0
-320 321 352 0
-318 319 0
-318 320 0
318 -319 -320 0
4 -5 0
4 -318 0
-4 5 318 0
-356 8 0
356 -8 0
-365 202 0
365 -202 0
-366 165 0
366 -165 0
-364 365 0
-364 366 0
364 -365 -366 0
-368 197 0
368 -197 0
-369 170 0
369 -170 0
-367 368 0
-367 369 0
367 -368 -369 0
363 -364 0
363 -367 0
-363 364 367 0
-371 197 0
371 -197 0
374 -149 0
-374 149 0
375 -151 0
-375 151 0
-373 374 0
-373 375 0
373 -374 -375 0
376 153 0
-376 -153 0
-372 373 0
-372 376 0
372 -373 -376 0
-370 371 0
-370 372 0
370 -371 -372 0
362 -363 0
362 -370 0
-362 363 370 0
-378 194 0
378 -194 0
-379 165 0
379 -165 0
-377 378 0
-377 379 0
377 -378 -379 0
361 -362 0
361 -377 0
-361 362 377 0
-381 189 0
381 -189 0
-382 162 0
382 -162 0
-380 381 0
-380 382 0
380 -381 -382 0
360 -361 0
360 -380 0
-360 361 380 0
-384 232 0
384 -232 0
-385 154 0
385 -154 0
-383 384 0
-383 385 0
383 -384 -385 0
359 -360 0
359 -383 0
-359 360 383 0
-387 186 0
387 -186 0
-388 157 0
388 -157 0
-386 387 0
-386 388 0
386 -387 -388 0
358 -359 0
358 -386 0
-358 359 386 0
-390 178 0
390 -178 0
-391 154 0
391 -154 0
-389 390 0
-389 391 0
389 -390 -391 0
357 -358 0
357 -389 0
-357 358 389 0
-355 356 0
-355 357 0
355 -356 -357 0
3 -4 0
3 -355 0
-3 4 355 0
-393 8 0
393 -8 0
-402 202 0
402 -202 0
-403 197 0
403 -197 0
-401 402 0
-401 403 0
401 -402 -403 0
-405 197 0
405 -197 0
-406 202 0
406 -202 0
-404 405 0
-404 406 0
404 -405 -406 0
400 -401 0
400 -404 0
-400 401 404 0
-408 197 0
408 -197 0
-409 232 0
409 -232 0
-407 408 0
-407 409 0
407 -408 -409 0
399 -400 0
399 -407 0
-399 400 407 0
-411 194 0
411 -194 0
-412 197 0
412 -197 0
-410 411 0
-410 412 0
410 -411 -412 0
398 -399 0
398 -410 0
-398 399 410 0
-414 189 0
414 -189 0
-415 194 0
415 -194 0
-413 414 0
-413 415 0
413 -414 -415 0
397 -398 0
397 -413 0
-397 398 413 0
-417 232 0
417 -232 0
-418 186 0
418 -186 0
-416 417 0
-416 418 0
416 -417 -418 0
396 -397 0
396 -416 0
-396 397 416 0
-420 186 0
420 -186 0
-421 189 0
421 -189 0
-419 420 0
-419 421 0
419 -420 -421 0
395 -396 0
395 -419 0
-395 396 419 0
-423 178 0
423 -178 0
-424 186 0
424 -186 0
-422 423 0
-422 424 0
422 -423 -424 0
394 -395 0
394 -422 0
-394 395 422 0
-392 393 0
-392 394 0
392 -393 -394 0
2 -3 0
2 -392 0
-2 3 392 0
-438 42 0
438 -42 0
-439 69 0
439 -69 0
-437 438 0
-437 439 0
437 -438 -439 0
-441 37 0
441 -37 0
-442 74 0
442 -74 0
-440 441 0
-440 442 0
440 -441 -442 0
436 -437 0
436 -440 0
-436 437 440 0
-444 37 0
444 -37 0
-445 261 0
445 -261 0
-443 444 0
-443 445 0
443 -444 -445 0
435 -436 0
435 -443 0
-435 436 443 0
-447 34 0
447 -34 0
-448 69 0
448 -69 0
-446 447 0
-446 448 0
446 -447 -448 0
434 -435 0
434 -446 0
-434 435 446 0
-450 29 0
450 -29 0
-451 66 0
451 -66 0
-449 450 0
-449 451 0
449 -450 -451 0
433 -434 0
433 -449 0
-433 434 449 0
-453 220 0
453 -220 0
-454 58 0
454 -58 0
-452 453 0
-452 454 0
452 -453 -454 0
432 -433 0
432 -452 0
-432 433 452 0
-456 26 0
456 -26 0
-457 61 0
457 -61 0
-455 456 0
-455 457 0
455 -456 -457 0
431 -432 0
431 -455 0
-431 432 455 0
-459 18 0
459 -18 0
-460 58 0
460 -58 0
-458 459 0
-458 460 0
458 -459 -460 0
430 -431 0
430 -458 0
-430 431 458 0
-469 74 0
469 -74 0
-470 101 0
470 -101 0
-468 469 0
-468 470 0
468 -469 -470 0
-472 69 0
472 -69 0
-473 106 0
473 -106 0
-471 472 0
-471 473 0
471 -472 -473 0
467 -468 0
467 -471 0
-467 468 471 0
-475 69 0
475 -69 0
-476 298 0
476 -298 0
-474 475 0
-474 476 0
474 -475 -476 0
466 -467 0
466 -474 0
-466 467 474 0
-478 66 0
478 -66 0
-479 101 0
479 -101 0
-477 478 0
-477 479 0
477 -478 -479 0
465 -466 0
465 -477 0
-465 466 477 0
-481 61 0
481 -61 0
-482 98 0
482 -98 0
-480 481 0
-480 482 0
480 -481 -482 0
464 -465 0
464 -480 0
-464 465 480 0
-484 261 0
484 -261 0
-485 90 0
485 -90 0
-483 484 0
-483 485 0
483 -484 -485 0
463 -464 0
463 -483 0
-463 464 483 0
-487 58 0
487 -58 0
-488 93 0
488 -93 0
-486 487 0
-486 488 0
486 -487 -488 0
462 -463 0
462 -486 0
-462 463 486 0
-490 50 0
490 -50 0
-491 90 0
491 -90 0
-489 490 0
-489 491 0
489 -490 -491 0
461 -462 0
461 -489 0
-461 462 489 0
-429 430 0
-429 461 0
429 -430 -461 0
-500 106 0
500 -106 0
-501 133 0
501 -133 0
-499 500 0
-499 501 0
499 -500 -501 0
-503 101 0
503 -101 0
-504 138 0
504 -138 0
-502 503 0
-502 504 0
502 -503 -504 0
498 -499 0
498 -502 0
-498 499 502 0
-506 101 0
506 -101 0
-507 335 0
507 -335 0
-505 506 0
-505 507 0
505 -506 -507 0
497 -498 0
497 -505 0
-497 498 505 0
-509 98 0
509 -98 0
-510 133 0
510 -133 0
-508 509 0
-508 510 0
508 -509 -510 0
496 -497 0
496 -508 0
-496 497 508 0
-512 93 0
512 -93 0
-513 130 0
513 -130 0
-511 512 0
-511 513 0
511 -512 -513 0
495 -496 0
495 -511 0
-495 496 511 0
-515 298 0
515 -298 0
-516 122 0
516 -122 0
-514 515 0
-514 516 0
514 -515 -516 0
494 -495 0
494 -514 0
-494 495 514 0
-518 90 0
518 -90 0
-519 125 0
519 -125 0
-517 518 0
-517 519 0
517 -518 -519 0
493 -494 0
493 -517 0
-493 494 517 0
-521 82 0
521 -82 0
-522 122 0
522 -122 0
-520 521 0
-520 522 0
520 -521 -522 0
492 -493 0
492 -520 0
-492 493 520 0
-428 429 0
-428 492 0
428 -429 -492 0
-531 138 0
531 -138 0
-532 165 0
532 -165 0
-530 531 0
-530 532 0
530 -531 -532 0
-534 133 0
534 -133 0
-535 170 0
535 -170 0
-533 534 0
-533 535 0
533 -534 -535 0
529 -530 0
529 -533 0
-529 530 533 0
-537 133 0
537 -133 0
-538 372 0
538 -372 0
-536 537 0
-536 538 0
536 -537 -538 0
528 -529 0
528 -536 0
-528 529 536 0
-540 130 0
540 -130 0
-541 165 0
541 -165 0
-539 540 0
-539 541 0
539 -540 -541 0
527 -528 0
527 -539 0
-527 528 539 0
-543 125 0
543 -125 0
-544 162 0
544 -162 0
-542 543 0
-542 544 0
542 -543 -544 0
526 -527 0
526 -542 0
-526 527 542 0
-546 335 0
546 -335 0
-547 154 0
547 -154 0
-545 546 0
-545 547 0
545 -546 -547 0
525 -526 0
525 -545 0
-525 526 545 0
-549 122 0
549 -122 0
-550 157 0
550 -157 0
-548 549 0
-548 550 0
548 -549 -550 0
524 -525 0
524 -548 0
-524 525 548 0
-552 114 0
552 -114 0
-553 154 0
553 -154 0
-551 552 0
-551 553 0
551 -552 -553 0
523 -524 0
523 -551 0
-523 524 551 0
-427 428 0
-427 523 0
427 -428 -523 0
-562 170 0
562 -170 0
-563 197 0
563 -197 0
-561 562 0
-561 563 0
561 -562 -563 0
-565 165 0
565 -165 0
-566 202 0
566 -202 0
-564 565 0
-564 566 0
564 -565 -566 0
560 -561 0
560 -564 0
-560 561 564 0
-568 165 0
568 -165 0
-569 232 0
569 -232 0
-567 568 0
-567 569 0
567 -568 -569 0
559 -560 0
559 -567 0
-559 560 567 0
-571 162 0
571 -162 0
-572 197 0
572 -197 0
-570 571 0
-570 572 0
570 -571 -572 0
558 -559 0
558 -570 0
-558 559 570 0
-574 157 0
574 -157 0
-575 194 0
575 -194 0
-573 574 0
-573 575 0
573 -574 -575 0
557 -558 0
557 -573 0
-557 558 573 0
-577 372 0
577 -372 0
-578 186 0
578 -186 0
-576 577 0
-576 578 0
576 -577 -578 0
556 -557 0
556 -576 0
-556 557 576 0
-580 154 0
580 -154 0
-581 189 0
581 -189 0
-579 580 0
-579 581 0
579 -580 -581 0
555 -556 0
555 -579 0
-555 556 579 0
-583 146 0
583 -146 0
-584 186 0
584 -186 0
-582 583 0
-582 584 0
582 -583 -584 0
554 -555 0
554 -582 0
-554 555 582 0
-426 427 0
-426 554 0
426 -427 -554 0
-585 18 0
585 -18 0
-425 426 0
-425 585 0
425 -426 -585 0
-1 2 0
-1 425 0
1 -2 -425 0
